# Generated by ConicBenchmarkUtilities.jl
VER
2

OBJSENSE
MIN

VAR
350 1
F 350

INT
42
11
12
13
14
15
16
17
18
19
20
21
22
23
24
25
26
27
28
29
30
31
32
33
34
43
44
45
46
47
48
49
50
51
52
193
194
195
196
197
198
199
200

CON
895 883
L= 1
L= 1
L= 1
L= 1
L= 1
L= 1
L= 1
L= 1
L= 1
L= 1
L= 1
L= 1
L= 1
L= 1
L= 1
L= 1
L= 1
L= 1
L= 1
L= 1
L= 1
L= 1
L= 1
L= 1
L= 1
L= 1
L= 1
L= 1
L= 1
L= 1
L= 1
L= 1
L= 1
L= 1
L= 1
L= 1
L+ 1
L+ 1
L+ 1
L+ 1
L+ 1
L+ 1
L+ 1
L+ 1
L+ 1
L+ 1
L+ 1
L= 1
L= 1
L= 1
L= 1
L= 1
L= 1
L= 1
L= 1
L= 1
L= 1
L= 1
L= 1
L= 1
L= 1
L= 1
L= 1
L= 1
L= 1
L= 1
L= 1
L+ 1
L+ 1
L+ 1
L= 1
L= 1
L= 1
L= 1
L= 1
L= 1
L= 1
L= 1
L= 1
L= 1
L= 1
L= 1
L= 1
L= 1
L= 1
L= 1
L= 1
L= 1
L+ 1
L+ 1
L+ 1
L+ 1
L+ 1
L+ 1
L+ 1
L+ 1
L+ 1
L+ 1
L+ 1
L+ 1
L+ 1
L+ 1
L+ 1
L+ 1
L+ 1
L+ 1
L+ 1
L+ 1
L+ 1
L+ 1
L+ 1
L+ 1
L+ 1
L+ 1
L+ 1
L+ 1
L+ 1
L+ 1
L+ 1
L+ 1
L+ 1
L+ 1
L+ 1
L+ 1
L+ 1
L+ 1
L+ 1
L+ 1
L+ 1
L+ 1
L+ 1
L+ 1
L+ 1
L+ 1
L+ 1
L+ 1
L+ 1
L+ 1
L+ 1
L+ 1
L+ 1
L+ 1
L+ 1
L+ 1
L+ 1
L+ 1
L+ 1
L+ 1
L+ 1
L+ 1
L+ 1
L+ 1
L+ 1
L+ 1
L+ 1
L+ 1
L+ 1
L+ 1
L+ 1
L+ 1
L= 1
L= 1
L= 1
L= 1
L= 1
L= 1
L= 1
L= 1
L= 1
L= 1
L= 1
L= 1
L= 1
L= 1
L= 1
L= 1
L= 1
L= 1
L= 1
L= 1
L= 1
L= 1
L= 1
L= 1
L= 1
L= 1
L= 1
L= 1
L= 1
L= 1
L= 1
L= 1
L= 1
L= 1
L= 1
L= 1
L= 1
L= 1
L= 1
L= 1
L= 1
L= 1
L= 1
L= 1
L= 1
L= 1
L= 1
L= 1
L= 1
L= 1
L= 1
L+ 1
L+ 1
L+ 1
L+ 1
L+ 1
L+ 1
L+ 1
L+ 1
L+ 1
L+ 1
L+ 1
L+ 1
L+ 1
L+ 1
L+ 1
L+ 1
L+ 1
L+ 1
L+ 1
L+ 1
L+ 1
L+ 1
L+ 1
L+ 1
L+ 1
L+ 1
L+ 1
L+ 1
L+ 1
L+ 1
L+ 1
L+ 1
L+ 1
L+ 1
L+ 1
L+ 1
L+ 1
L+ 1
L+ 1
L+ 1
L+ 1
L+ 1
L+ 1
L+ 1
L+ 1
L+ 1
L+ 1
L+ 1
L+ 1
L+ 1
L+ 1
L+ 1
L+ 1
L+ 1
L+ 1
L+ 1
L+ 1
L+ 1
L+ 1
L+ 1
L+ 1
L+ 1
L+ 1
L+ 1
L+ 1
L+ 1
L+ 1
L+ 1
L+ 1
L+ 1
L+ 1
L+ 1
L+ 1
L+ 1
L+ 1
L+ 1
L= 1
L= 1
L= 1
L= 1
L= 1
L= 1
L= 1
L= 1
L+ 1
L+ 1
L+ 1
L+ 1
L+ 1
L+ 1
L+ 1
L+ 1
L+ 1
L+ 1
L+ 1
L+ 1
L+ 1
L+ 1
L+ 1
L+ 1
L+ 1
L+ 1
L+ 1
L+ 1
L+ 1
L+ 1
L+ 1
L+ 1
L+ 1
L+ 1
L+ 1
L+ 1
L+ 1
L+ 1
L+ 1
L+ 1
L= 1
L= 1
L= 1
L= 1
L= 1
L= 1
L= 1
L= 1
L= 1
L= 1
L= 1
L= 1
L= 1
L= 1
L= 1
L= 1
L= 1
L= 1
L= 1
L= 1
L= 1
L= 1
L= 1
L= 1
L= 1
L= 1
L= 1
L= 1
L= 1
L= 1
L= 1
L= 1
L+ 1
L= 1
L= 1
L= 1
L= 1
L= 1
L= 1
L= 1
L= 1
L= 1
L= 1
L= 1
L= 1
L= 1
L= 1
L= 1
L= 1
L= 1
L= 1
EXP 3
L+ 1
L+ 1
L= 1
L= 1
L= 1
L= 1
L+ 1
L+ 1
L+ 1
L+ 1
EXP 3
L+ 1
L+ 1
L= 1
L= 1
L= 1
L= 1
L+ 1
L+ 1
L+ 1
L+ 1
L= 1
L= 1
L= 1
L= 1
L= 1
L+ 1
L+ 1
L+ 1
L+ 1
EXP 3
L+ 1
L+ 1
L= 1
L= 1
L= 1
L= 1
L+ 1
L+ 1
L+ 1
L+ 1
L= 1
L= 1
L= 1
L= 1
L= 1
L= 1
L= 1
L= 1
L+ 1
L+ 1
L+ 1
L+ 1
L+ 1
L+ 1
EXP 3
L+ 1
L+ 1
L= 1
L= 1
L= 1
L= 1
L+ 1
L+ 1
L+ 1
L+ 1
EXP 3
L+ 1
L+ 1
L= 1
L= 1
L= 1
L= 1
L+ 1
L+ 1
L+ 1
L+ 1
EXP 3
L+ 1
L+ 1
L= 1
L= 1
L= 1
L= 1
L+ 1
L+ 1
L+ 1
L+ 1
L= 1
L= 1
L= 1
L= 1
L= 1
L+ 1
L+ 1
L+ 1
L+ 1
L= 1
L= 1
L= 1
L= 1
L= 1
L+ 1
L+ 1
L+ 1
L+ 1
L= 1
L+ 1
L+ 1
L+ 1
L+ 1
L+ 1
L+ 1
L+ 1
L+ 1
L+ 1
L+ 1
L+ 1
L+ 1
L+ 1
L+ 1
L+ 1
L+ 1
L+ 1
L+ 1
L+ 1
L+ 1
L+ 1
L+ 1
L+ 1
L+ 1
L+ 1
L+ 1
L+ 1
L+ 1
L+ 1
L+ 1
L+ 1
L+ 1
L+ 1
L+ 1
L+ 1
L+ 1
L+ 1
L+ 1
L+ 1
L+ 1
L+ 1
L+ 1
L+ 1
L+ 1
L+ 1
L+ 1
L+ 1
L+ 1
L+ 1
L+ 1
L+ 1
L+ 1
L+ 1
L+ 1
L+ 1
L+ 1
L+ 1
L+ 1
L+ 1
L+ 1
L+ 1
L+ 1
L+ 1
L+ 1
L+ 1
L+ 1
L+ 1
L+ 1
L+ 1
L+ 1
L+ 1
L+ 1
L+ 1
L+ 1
L+ 1
L+ 1
L+ 1
L+ 1
L+ 1
L+ 1
L+ 1
L+ 1
L+ 1
L+ 1
L+ 1
L+ 1
L+ 1
L+ 1
L+ 1
L+ 1
L+ 1
L+ 1
L+ 1
L+ 1
L+ 1
L+ 1
L+ 1
L+ 1
L+ 1
L+ 1
L+ 1
L+ 1
L+ 1
L+ 1
L+ 1
L+ 1
L+ 1
L+ 1
L+ 1
L+ 1
L+ 1
L+ 1
L+ 1
L+ 1
L+ 1
L+ 1
L+ 1
L+ 1
L+ 1
L+ 1
L+ 1
L+ 1
L+ 1
L+ 1
L+ 1
L+ 1
L+ 1
L+ 1
L+ 1
L+ 1
L+ 1
L+ 1
L+ 1
L+ 1
L+ 1
L+ 1
L+ 1
L+ 1
L+ 1
L+ 1
L+ 1
L+ 1
L+ 1
L+ 1
L+ 1
L+ 1
L+ 1
L+ 1
L+ 1
L+ 1
L+ 1
L+ 1
L+ 1
L+ 1
L+ 1
L+ 1
L+ 1
L+ 1
L+ 1
L+ 1
L+ 1
L+ 1
L+ 1
L+ 1
L+ 1
L+ 1
L+ 1
L+ 1
L+ 1
L+ 1
L+ 1
L+ 1
L+ 1
L+ 1
L+ 1
L+ 1
L+ 1
L+ 1
L+ 1
L+ 1
L+ 1
L+ 1
L+ 1
L+ 1
L+ 1
L+ 1
L+ 1
L+ 1
L+ 1
L+ 1
L+ 1
L+ 1
L+ 1
L+ 1
L+ 1
L+ 1
L+ 1
L+ 1
L+ 1
L+ 1
L+ 1
L+ 1
L+ 1
L+ 1
L+ 1
L+ 1
L+ 1
L+ 1
L+ 1
L+ 1
L+ 1
L+ 1
L+ 1
L+ 1
L+ 1
L+ 1
L+ 1
L+ 1
L+ 1
L+ 1
L+ 1
L+ 1
L+ 1
L+ 1
L+ 1
L+ 1
L+ 1
L+ 1
L+ 1
L+ 1
L+ 1
L+ 1
L+ 1
L+ 1
L+ 1
L+ 1
L+ 1
L+ 1
L+ 1
L+ 1
L+ 1
L+ 1
L+ 1
L+ 1
L+ 1
L+ 1
L+ 1
L+ 1
L+ 1
L+ 1
L+ 1
L+ 1
L+ 1
L+ 1
L+ 1
L+ 1
L+ 1
L+ 1
L+ 1
L+ 1
L+ 1
L+ 1
L+ 1
L+ 1
L+ 1
L+ 1
L+ 1
L+ 1
L+ 1
L+ 1
L+ 1
L+ 1
L+ 1
L+ 1
L+ 1
L+ 1
L+ 1
L+ 1
L+ 1
L+ 1
L+ 1
L+ 1
L+ 1
L+ 1
L+ 1
L+ 1
L+ 1
L+ 1
L+ 1
L+ 1
L+ 1
L+ 1
L+ 1
L+ 1
L+ 1
L+ 1
L+ 1
L+ 1
L+ 1
L+ 1
L+ 1
L+ 1
L+ 1
L+ 1
L+ 1
L+ 1
L+ 1
L+ 1
L+ 1
L+ 1
L+ 1
L+ 1
L+ 1
L+ 1
L+ 1
L+ 1
L+ 1
L+ 1
L+ 1
L+ 1
L+ 1
L+ 1
L+ 1
L+ 1
L+ 1
L+ 1
L+ 1
L+ 1
L+ 1
L+ 1
L+ 1
L+ 1
L+ 1
L+ 1
L+ 1
L+ 1
L+ 1
L+ 1
L+ 1
L+ 1
L+ 1
L+ 1
L+ 1
L+ 1
L+ 1
L+ 1
L+ 1
L+ 1
L+ 1
L+ 1
L+ 1
L+ 1
L+ 1
L+ 1
L+ 1
L+ 1
L+ 1
L+ 1
L+ 1
L+ 1
L+ 1
L+ 1
L+ 1
L+ 1
L+ 1
L+ 1
L+ 1
L+ 1
L+ 1
L+ 1
L+ 1
L+ 1
L+ 1
L+ 1
L+ 1
L+ 1
L+ 1
L+ 1
L+ 1
L+ 1
L+ 1
L+ 1
L+ 1
L+ 1
L+ 1
L+ 1
L+ 1
L+ 1
L+ 1
L+ 1
L+ 1
L+ 1
L+ 1
L+ 1
L+ 1
L+ 1
L+ 1

OBJACOORD
1
53 -1.0

ACOORD
1599
0 0 -4.0
1 0 1.0
42 0 -1.0
47 0 1.0
359 0 -4.0
508 0 1.0
0 1 -8.0
6 1 1.0
43 1 -1.0
49 1 1.0
359 1 -8.0
513 1 1.0
0 2 -5.0
10 2 1.0
44 2 -1.0
51 2 1.0
359 2 -5.0
517 2 1.0
0 3 -8.0
22 3 1.0
45 3 -1.0
55 3 1.0
359 3 -8.0
529 3 1.0
0 4 23.0
26 4 1.0
36 4 1.0
56 4 -1.0
533 4 1.0
0 5 19.0
28 5 1.0
37 5 1.0
57 5 -1.0
535 5 1.0
0 6 -10.0
29 6 1.0
46 6 -1.0
58 6 1.0
359 6 -10.0
536 6 1.0
0 7 2.0
32 7 1.0
38 7 1.0
368 7 -1.0
539 7 1.0
0 8 3.0
33 8 1.0
39 8 1.0
369 8 -1.0
540 8 1.0
0 9 25.0
34 9 1.0
40 9 1.0
370 9 -1.0
541 9 1.0
0 10 24.0
35 10 1.0
41 10 1.0
371 10 -1.0
542 10 1.0
0 11 -6.0
89 11 148.75
129 11 175.0
212 11 35.0
256 11 10.0
296 11 6.0
328 11 -6.0
360 11 1.0
744 11 1.0
745 11 -1.0
0 12 -40.0
90 12 148.75
130 12 175.0
213 12 35.0
257 12 50.0
297 12 40.0
329 12 -40.0
360 12 1.0
746 12 1.0
747 12 -1.0
0 13 -46.0
91 13 148.75
131 13 175.0
214 13 35.0
258 13 50.0
298 13 46.0
330 13 -46.0
360 13 1.0
748 13 1.0
749 13 -1.0
0 14 -7.0
93 14 254.045833333333
133 14 175.0
216 14 35.0
220 14 61.0
260 14 40.0
300 14 7.0
332 14 -7.0
361 14 1.0
752 14 1.0
753 14 -1.0
0 15 -30.0
94 15 254.045833333333
134 15 175.0
217 15 35.0
221 15 61.0
261 15 60.0
301 15 30.0
333 15 -30.0
361 15 1.0
754 15 1.0
755 15 -1.0
0 16 -37.0
95 16 254.045833333333
135 16 175.0
218 16 35.0
222 16 61.0
262 16 60.0
302 16 37.0
334 16 -37.0
361 16 1.0
756 16 1.0
757 16 -1.0
0 17 -7.0
97 17 20.4166666666667
101 17 20.4166666666667
137 17 20.8333333333333
224 17 25.0
264 17 15.0
304 17 7.0
336 17 -7.0
362 17 1.0
760 17 1.0
761 17 -1.0
0 18 -15.0
98 18 20.4166666666667
102 18 20.4166666666667
138 18 20.8333333333333
225 18 25.0
265 18 25.0
305 18 15.0
337 18 -15.0
362 18 1.0
762 18 1.0
763 18 -1.0
0 19 -22.0
99 19 20.4166666666667
103 19 20.4166666666667
139 19 20.8333333333333
226 19 25.0
266 19 25.0
306 19 22.0
338 19 -22.0
362 19 1.0
764 19 1.0
765 19 -1.0
0 20 -11.0
105 20 18.75
141 20 20.8333333333333
228 20 25.0
268 20 15.0
308 20 11.0
340 20 -11.0
363 20 1.0
768 20 1.0
769 20 -1.0
0 21 -13.0
106 21 18.75
142 21 20.8333333333333
229 21 25.0
269 21 20.0
309 21 13.0
341 21 -13.0
363 21 1.0
770 21 1.0
771 21 -1.0
0 22 -24.0
107 22 18.75
143 22 20.8333333333333
230 22 25.0
270 22 20.0
310 22 24.0
342 22 -24.0
363 22 1.0
772 22 1.0
773 22 -1.0
0 23 -10.0
109 23 17.8125
113 23 17.8125
145 23 18.75
232 23 25.0
272 23 10.0
312 23 10.0
344 23 -10.0
364 23 1.0
776 23 1.0
777 23 -1.0
0 24 -13.0
110 24 17.8125
114 24 17.8125
146 24 18.75
233 24 25.0
273 24 20.0
313 24 13.0
345 24 -13.0
364 24 1.0
778 24 1.0
779 24 -1.0
0 25 -23.0
111 25 17.8125
115 25 17.8125
147 25 18.75
234 25 25.0
274 25 20.0
314 25 23.0
346 25 -23.0
364 25 1.0
780 25 1.0
781 25 -1.0
0 26 -9.0
117 26 66.9375
149 26 18.75
236 26 25.0
240 26 24.0
276 26 20.0
316 26 9.0
348 26 -9.0
365 26 1.0
784 26 1.0
785 26 -1.0
0 27 -30.0
118 27 66.9375
150 27 18.75
237 27 25.0
241 27 24.0
277 27 55.0
317 27 30.0
349 27 -30.0
365 27 1.0
786 27 1.0
787 27 -1.0
0 28 -39.0
119 28 66.9375
151 28 18.75
238 28 25.0
242 28 24.0
278 28 55.0
318 28 39.0
350 28 -39.0
365 28 1.0
788 28 1.0
789 28 -1.0
0 29 -8.0
121 29 94.4571428571429
153 29 60.0
244 29 24.0
248 29 30.0
280 29 25.0
320 29 8.0
352 29 -8.0
366 29 1.0
792 29 1.0
793 29 -1.0
0 30 -20.0
122 30 94.4571428571429
154 30 60.0
245 30 24.0
249 30 30.0
281 30 50.0
321 30 20.0
353 30 -20.0
366 30 1.0
794 30 1.0
795 30 -1.0
0 31 -28.0
123 31 94.4571428571429
155 31 60.0
246 31 24.0
250 31 30.0
282 31 50.0
322 31 28.0
354 31 -28.0
366 31 1.0
796 31 1.0
797 31 -1.0
0 32 -8.0
125 32 39.4285714285714
157 32 42.8571428571429
252 32 30.0
284 32 15.0
324 32 8.0
356 32 -8.0
367 32 1.0
800 32 1.0
801 32 -1.0
0 33 -15.0
126 33 39.4285714285714
158 33 42.8571428571429
253 33 30.0
285 33 35.0
325 33 15.0
357 33 -15.0
367 33 1.0
802 33 1.0
803 33 -1.0
0 34 -23.0
127 34 39.4285714285714
159 34 42.8571428571429
254 34 30.0
286 34 35.0
326 34 23.0
358 34 -23.0
367 34 1.0
804 34 1.0
805 34 -1.0
0 35 5.0
374 35 -1.0
813 35 1.0
0 36 -2.0
369 36 -1.0
432 36 1.0
818 36 1.0
819 36 -1.0
0 37 200.0
377 37 -1.0
827 37 1.0
0 38 250.0
448 38 1.0
828 38 1.0
0 39 200.0
461 39 1.0
829 39 1.0
0 40 200.0
474 40 1.0
830 40 1.0
0 41 500.0
483 41 1.0
831 41 1.0
0 42 350.0
492 42 1.0
832 42 1.0
0 43 -5.0
378 43 1.0
379 43 1.0
381 43 1.0
387 43 10.0
388 43 -10.0
389 43 2.39789527279837
390 43 -2.39789527279837
497 43 1.0
500 43 1.0
501 43 1.0
502 43 1.0
875 43 1.0
876 43 -1.0
0 44 -8.0
391 44 1.0
392 44 1.0
394 44 1.0
400 44 10.0
401 44 -10.0
402 44 2.87747432735804
403 44 -2.87747432735804
497 44 1.0
500 44 1.0
501 44 1.0
502 44 1.0
877 44 1.0
878 44 -1.0
0 45 -6.0
409 45 2.87747432735804
410 45 -2.87747432735804
411 45 2.15810574551853
412 45 -2.15810574551853
498 45 -1.0
500 45 -1.0
503 45 1.0
504 45 1.0
879 45 1.0
880 45 -1.0
0 46 -10.0
413 46 1.0
414 46 1.0
416 46 1.0
422 46 2.87747432735804
423 46 -2.87747432735804
424 46 2.03277599268042
425 46 -2.03277599268042
499 46 -1.0
501 46 -1.0
505 46 1.0
881 46 1.0
882 46 -1.0
0 47 -6.0
434 47 2.87747432735804
435 47 -2.87747432735804
436 47 7.0
437 47 -7.0
438 47 3.5
439 47 -3.5
502 47 -1.0
506 47 1.0
507 47 1.0
883 47 1.0
884 47 -1.0
0 48 -7.0
440 48 1.0
441 48 1.0
443 48 1.0
449 48 2.15810574551853
450 48 -2.15810574551853
451 48 1.43746550029693
452 48 -1.43746550029693
498 48 1.0
503 48 -1.0
885 48 1.0
886 48 -1.0
0 49 -4.0
453 49 1.0
454 49 1.0
456 49 1.0
462 49 2.15810574551853
463 49 -2.15810574551853
464 49 1.03497516021379
465 49 -1.03497516021379
498 49 1.0
504 49 -1.0
887 49 1.0
888 49 -1.0
0 50 -5.0
466 50 1.0
467 50 1.0
469 50 1.0
475 50 2.03277599268042
476 50 -2.03277599268042
477 50 1.10947836929589
478 50 -1.10947836929589
499 50 1.0
505 50 -1.0
889 50 1.0
890 50 -1.0
0 51 -2.0
484 51 3.5
485 51 -3.5
486 51 3.15
487 51 -3.15
506 51 -1.0
891 51 1.0
892 51 -1.0
0 52 -4.0
493 52 3.5
494 52 -3.5
495 52 2.1
496 52 -2.1
507 52 -1.0
893 52 1.0
894 52 -1.0
0 53 -1.0
1 54 -0.2
543 54 1.0
2 55 1.0
47 55 -1.0
59 55 1.0
200 55 1.0
509 55 1.0
2 56 -0.2
71 56 1.0
544 56 1.0
3 57 1.0
47 57 -1.0
60 57 1.0
201 57 1.0
510 57 1.0
3 58 -0.2
67 58 -1.0
73 58 1.0
545 58 1.0
4 59 1.0
48 59 1.0
59 59 -1.0
511 59 1.0
4 60 -0.2
70 60 1.0
546 60 1.0
5 61 1.0
48 61 -1.0
368 61 1.0
512 61 1.0
5 62 -0.2
547 62 1.0
6 63 -0.5
548 63 1.0
7 64 1.0
49 64 -1.0
60 64 1.0
202 64 1.0
514 64 1.0
7 65 -0.5
67 65 1.0
549 65 1.0
8 66 1.0
50 66 1.0
60 66 -1.0
515 66 1.0
8 67 -0.7
72 67 1.0
550 67 1.0
9 68 1.0
50 68 -1.0
369 68 1.0
516 68 1.0
9 69 -0.7
551 69 1.0
10 70 -1.2
552 70 1.0
11 71 1.0
51 71 -1.0
61 71 1.0
203 71 1.0
518 71 1.0
11 72 -1.2
76 72 1.0
553 72 1.0
12 73 1.0
49 73 1.0
61 73 -1.0
519 73 1.0
12 74 -0.5
74 74 1.0
554 74 1.0
13 75 1.0
50 75 1.0
61 75 -1.0
520 75 1.0
13 76 -0.7
75 76 1.0
555 76 1.0
14 77 1.0
51 77 -1.0
62 77 1.0
204 77 1.0
521 77 1.0
14 78 -1.2
78 78 1.0
556 78 1.0
15 79 1.0
52 79 1.0
62 79 -1.0
522 79 1.0
15 80 -1.2
77 80 1.0
557 80 1.0
16 81 1.0
52 81 -1.0
64 81 1.0
206 81 1.0
523 81 1.0
16 82 -1.2
68 82 -1.0
83 82 1.0
558 82 1.0
17 83 1.0
52 83 -1.0
63 83 1.0
205 83 1.0
524 83 1.0
17 84 -1.2
81 84 1.0
559 84 1.0
18 85 1.0
53 85 1.0
63 85 -1.0
525 85 1.0
18 86 -0.3
79 86 1.0
560 86 1.0
19 87 1.0
54 87 1.0
63 87 -1.0
526 87 1.0
19 88 -0.9
80 88 1.0
561 88 1.0
20 89 1.0
53 89 -1.0
370 89 1.0
527 89 1.0
20 90 -0.3
562 90 1.0
21 91 1.0
54 91 -1.0
371 91 1.0
528 91 1.0
21 92 -0.9
563 92 1.0
22 93 -0.4
564 93 1.0
23 94 1.0
55 94 -1.0
64 94 1.0
207 94 1.0
530 94 1.0
23 95 -0.4
68 95 1.0
565 95 1.0
24 96 1.0
55 96 -1.0
65 96 1.0
208 96 1.0
531 96 1.0
24 97 -0.4
69 97 -1.0
85 97 1.0
566 97 1.0
25 98 1.0
56 98 1.0
64 98 -1.0
532 98 1.0
25 99 -1.6
82 99 1.0
567 99 1.0
26 100 -1.6
568 100 1.0
27 101 1.0
57 101 1.0
65 101 -1.0
534 101 1.0
27 102 -1.1
84 102 1.0
569 102 1.0
28 103 -1.1
570 103 1.0
29 104 -0.7
571 104 1.0
30 105 1.0
58 105 -1.0
66 105 1.0
210 105 1.0
537 105 1.0
30 106 -0.7
87 106 1.0
572 106 1.0
31 107 1.0
65 107 1.0
66 107 -1.0
209 107 1.0
538 107 1.0
31 108 -0.7
69 108 1.0
86 108 1.0
573 108 1.0
32 109 -0.2
574 109 1.0
33 110 -0.7
575 110 1.0
34 111 -0.3
576 111 1.0
35 112 -0.9
577 112 1.0
59 113 -1.0
578 113 1.0
60 114 -1.0
579 114 1.0
61 115 -1.0
580 115 1.0
62 116 -1.0
581 116 1.0
63 117 -1.0
582 117 1.0
64 118 -1.0
583 118 1.0
65 119 -1.0
584 119 1.0
66 120 -1.0
585 120 1.0
70 121 -1.0
88 121 -1.0
160 121 1.0
646 121 1.0
70 122 -1.0
89 122 -1.0
161 122 1.0
647 122 1.0
70 123 -1.0
90 123 -1.0
162 123 1.0
648 123 1.0
70 124 -1.0
91 124 -1.0
163 124 1.0
649 124 1.0
71 125 -1.0
128 125 -1.0
160 125 -0.8
638 125 1.0
71 126 -1.0
129 126 -1.0
161 126 -0.85
639 126 1.0
71 127 -1.0
130 127 -1.0
162 127 -0.8
640 127 1.0
71 128 -1.0
131 128 -1.0
163 128 -0.85
641 128 1.0
72 129 -1.0
92 129 -1.0
164 129 1.0
650 129 1.0
72 130 -1.0
93 130 -1.0
165 130 1.0
651 130 1.0
72 131 -1.0
94 131 -1.0
166 131 1.0
652 131 1.0
72 132 -1.0
95 132 -1.0
167 132 1.0
653 132 1.0
73 133 -1.0
132 133 -1.0
164 133 -0.9
642 133 1.0
73 134 -1.0
133 134 -1.0
165 134 -0.95
643 134 1.0
73 135 -1.0
134 135 -1.0
166 135 -0.9
644 135 1.0
73 136 -1.0
135 136 -1.0
167 136 -0.95
645 136 1.0
74 137 -1.0
96 137 -1.0
168 137 1.0
658 137 1.0
74 138 -1.0
97 138 -1.0
169 138 1.0
659 138 1.0
74 139 -1.0
98 139 -1.0
170 139 1.0
660 139 1.0
74 140 -1.0
99 140 -1.0
171 140 1.0
661 140 1.0
75 141 -1.0
100 141 -1.0
172 141 1.0
662 141 1.0
75 142 -1.0
101 142 -1.0
173 142 1.0
663 142 1.0
75 143 -1.0
102 143 -1.0
174 143 1.0
664 143 1.0
75 144 -1.0
103 144 -1.0
175 144 1.0
665 144 1.0
76 145 -1.0
136 145 -1.0
168 145 -0.85
172 145 -0.85
654 145 1.0
76 146 -1.0
137 146 -1.0
169 146 -0.98
173 146 -0.98
655 146 1.0
76 147 -1.0
138 147 -1.0
170 147 -0.85
174 147 -0.85
656 147 1.0
76 148 -1.0
139 148 -1.0
171 148 -0.98
175 148 -0.98
657 148 1.0
77 149 -1.0
104 149 -1.0
176 149 1.0
670 149 1.0
77 150 -1.0
105 150 -1.0
177 150 1.0
671 150 1.0
77 151 -1.0
106 151 -1.0
178 151 1.0
672 151 1.0
77 152 -1.0
107 152 -1.0
179 152 1.0
673 152 1.0
78 153 -1.0
140 153 -1.0
176 153 -0.85
666 153 1.0
78 154 -1.0
141 154 -1.0
177 154 -0.9
667 154 1.0
78 155 -1.0
142 155 -1.0
178 155 -0.85
668 155 1.0
78 156 -1.0
143 156 -1.0
179 156 -0.9
669 156 1.0
79 157 -1.0
108 157 -1.0
180 157 1.0
682 157 1.0
79 158 -1.0
109 158 -1.0
181 158 1.0
683 158 1.0
79 159 -1.0
110 159 -1.0
182 159 1.0
684 159 1.0
79 160 -1.0
111 160 -1.0
183 160 1.0
685 160 1.0
80 161 -1.0
112 161 -1.0
184 161 1.0
686 161 1.0
80 162 -1.0
113 162 -1.0
185 162 1.0
687 162 1.0
80 163 -1.0
114 163 -1.0
186 163 1.0
688 163 1.0
80 164 -1.0
115 164 -1.0
187 164 1.0
689 164 1.0
81 165 -1.0
144 165 -1.0
180 165 -0.75
184 165 -0.75
678 165 1.0
81 166 -1.0
145 166 -1.0
181 166 -0.95
185 166 -0.95
679 166 1.0
81 167 -1.0
146 167 -1.0
182 167 -0.9
186 167 -0.9
680 167 1.0
81 168 -1.0
147 168 -1.0
183 168 -0.95
187 168 -0.95
681 168 1.0
82 169 -1.0
116 169 -1.0
188 169 1.0
694 169 1.0
82 170 -1.0
117 170 -1.0
189 170 1.0
695 170 1.0
82 171 -1.0
118 171 -1.0
190 171 1.0
696 171 1.0
82 172 -1.0
119 172 -1.0
191 172 1.0
697 172 1.0
83 173 -1.0
148 173 -1.0
188 173 -0.8
674 173 1.0
83 174 -1.0
149 174 -1.0
189 174 -0.85
675 174 1.0
83 175 -1.0
150 175 -1.0
190 175 -0.8
676 175 1.0
83 176 -1.0
151 176 -1.0
191 176 -0.85
677 176 1.0
84 177 -1.0
120 177 -1.0
192 177 1.0
698 177 1.0
84 178 -1.0
121 178 -1.0
193 178 1.0
699 178 1.0
84 179 -1.0
122 179 -1.0
194 179 1.0
700 179 1.0
84 180 -1.0
123 180 -1.0
195 180 1.0
701 180 1.0
85 181 -1.0
152 181 -1.0
192 181 -0.85
690 181 1.0
85 182 -1.0
153 182 -1.0
193 182 -0.95
691 182 1.0
85 183 -1.0
154 183 -1.0
194 183 -0.85
692 183 1.0
85 184 -1.0
155 184 -1.0
195 184 -0.95
693 184 1.0
86 185 -1.0
124 185 -1.0
196 185 1.0
706 185 1.0
86 186 -1.0
125 186 -1.0
197 186 1.0
707 186 1.0
86 187 -1.0
126 187 -1.0
198 187 1.0
708 187 1.0
86 188 -1.0
127 188 -1.0
199 188 1.0
709 188 1.0
87 189 -1.0
156 189 -1.0
196 189 -0.8
702 189 1.0
87 190 -1.0
157 190 -1.0
197 190 -0.92
703 190 1.0
87 191 -1.0
158 191 -1.0
198 191 -0.8
704 191 1.0
87 192 -1.0
159 192 -1.0
199 192 -0.92
705 192 1.0
88 193 148.75
128 193 175.0
211 193 35.0
255 193 10.0
360 193 1.0
742 193 1.0
743 193 -1.0
92 194 254.045833333333
132 194 175.0
215 194 35.0
219 194 61.0
259 194 40.0
361 194 1.0
750 194 1.0
751 194 -1.0
96 195 20.4166666666667
100 195 20.4166666666667
136 195 20.8333333333333
223 195 25.0
263 195 15.0
362 195 1.0
758 195 1.0
759 195 -1.0
104 196 18.75
140 196 20.8333333333333
227 196 25.0
267 196 15.0
363 196 1.0
766 196 1.0
767 196 -1.0
108 197 17.8125
112 197 17.8125
144 197 18.75
231 197 25.0
271 197 10.0
364 197 1.0
774 197 1.0
775 197 -1.0
116 198 66.9375
148 198 18.75
235 198 25.0
239 198 24.0
275 198 20.0
365 198 1.0
782 198 1.0
783 198 -1.0
120 199 94.4571428571429
152 199 60.0
243 199 24.0
247 199 30.0
279 199 25.0
366 199 1.0
790 199 1.0
791 199 -1.0
124 200 39.4285714285714
156 200 42.8571428571429
251 200 30.0
283 200 15.0
367 200 1.0
798 200 1.0
799 200 -1.0
200 201 -1.0
211 201 -1.0
255 201 -1.0
594 201 1.0
200 202 -1.0
212 202 -1.0
256 202 -1.0
595 202 1.0
200 203 -1.0
213 203 -1.0
257 203 -1.0
596 203 1.0
200 204 -1.0
214 204 -1.0
258 204 -1.0
597 204 1.0
201 205 -1.0
215 205 -1.0
259 205 -1.0
598 205 1.0
201 206 -1.0
216 206 -1.0
260 206 -1.0
599 206 1.0
201 207 -1.0
217 207 -1.0
261 207 -1.0
600 207 1.0
201 208 -1.0
218 208 -1.0
262 208 -1.0
601 208 1.0
202 209 -1.0
219 209 -1.0
259 209 -1.0
602 209 1.0
202 210 -1.0
220 210 -1.0
260 210 -1.0
603 210 1.0
202 211 -1.0
221 211 -1.0
261 211 -1.0
604 211 1.0
202 212 -1.0
222 212 -1.0
262 212 -1.0
605 212 1.0
203 213 -1.0
223 213 -1.0
263 213 -1.0
606 213 1.0
203 214 -1.0
224 214 -1.0
264 214 -1.0
607 214 1.0
203 215 -1.0
225 215 -1.0
265 215 -1.0
608 215 1.0
203 216 -1.0
226 216 -1.0
266 216 -1.0
609 216 1.0
204 217 -1.0
227 217 -1.0
267 217 -1.0
610 217 1.0
204 218 -1.0
228 218 -1.0
268 218 -1.0
611 218 1.0
204 219 -1.0
229 219 -1.0
269 219 -1.0
612 219 1.0
204 220 -1.0
230 220 -1.0
270 220 -1.0
613 220 1.0
205 221 -1.0
231 221 -1.0
271 221 -1.0
618 221 1.0
205 222 -1.0
232 222 -1.0
272 222 -1.0
619 222 1.0
205 223 -1.0
233 223 -1.0
273 223 -1.0
620 223 1.0
205 224 -1.0
234 224 -1.0
274 224 -1.0
621 224 1.0
206 225 -1.0
235 225 -1.0
275 225 -1.0
614 225 1.0
206 226 -1.0
236 226 -1.0
276 226 -1.0
615 226 1.0
206 227 -1.0
237 227 -1.0
277 227 -1.0
616 227 1.0
206 228 -1.0
238 228 -1.0
278 228 -1.0
617 228 1.0
207 229 -1.0
239 229 -1.0
275 229 -1.0
622 229 1.0
207 230 -1.0
240 230 -1.0
276 230 -1.0
623 230 1.0
207 231 -1.0
241 231 -1.0
277 231 -1.0
624 231 1.0
207 232 -1.0
242 232 -1.0
278 232 -1.0
625 232 1.0
208 233 -1.0
243 233 -1.0
279 233 -1.0
626 233 1.0
208 234 -1.0
244 234 -1.0
280 234 -1.0
627 234 1.0
208 235 -1.0
245 235 -1.0
281 235 -1.0
628 235 1.0
208 236 -1.0
246 236 -1.0
282 236 -1.0
629 236 1.0
209 237 -1.0
247 237 -1.0
279 237 -1.0
634 237 1.0
209 238 -1.0
248 238 -1.0
280 238 -1.0
635 238 1.0
209 239 -1.0
249 239 -1.0
281 239 -1.0
636 239 1.0
209 240 -1.0
250 240 -1.0
282 240 -1.0
637 240 1.0
210 241 -1.0
251 241 -1.0
283 241 -1.0
630 241 1.0
210 242 -1.0
252 242 -1.0
284 242 -1.0
631 242 1.0
210 243 -1.0
253 243 -1.0
285 243 -1.0
632 243 1.0
210 244 -1.0
254 244 -1.0
286 244 -1.0
633 244 1.0
287 245 1.0
359 245 -1.0
586 245 1.0
287 246 -1.0
295 246 -1.0
327 246 1.0
710 246 1.0
287 247 -1.0
296 247 -1.0
328 247 1.0
711 247 1.0
287 248 -1.0
297 248 -1.0
329 248 1.0
712 248 1.0
287 249 -1.0
298 249 -1.0
330 249 1.0
713 249 1.0
288 250 1.0
359 250 -1.0
587 250 1.0
288 251 -1.0
299 251 -1.0
331 251 1.0
714 251 1.0
288 252 -1.0
300 252 -1.0
332 252 1.0
715 252 1.0
288 253 -1.0
301 253 -1.0
333 253 1.0
716 253 1.0
288 254 -1.0
302 254 -1.0
334 254 1.0
717 254 1.0
289 255 1.0
359 255 -1.0
588 255 1.0
289 256 -1.0
303 256 -1.0
335 256 1.0
718 256 1.0
289 257 -1.0
304 257 -1.0
336 257 1.0
719 257 1.0
289 258 -1.0
305 258 -1.0
337 258 1.0
720 258 1.0
289 259 -1.0
306 259 -1.0
338 259 1.0
721 259 1.0
290 260 1.0
359 260 -1.0
589 260 1.0
290 261 -1.0
307 261 -1.0
339 261 1.0
722 261 1.0
290 262 -1.0
308 262 -1.0
340 262 1.0
723 262 1.0
290 263 -1.0
309 263 -1.0
341 263 1.0
724 263 1.0
290 264 -1.0
310 264 -1.0
342 264 1.0
725 264 1.0
291 265 1.0
359 265 -1.0
590 265 1.0
291 266 -1.0
311 266 -1.0
343 266 1.0
726 266 1.0
291 267 -1.0
312 267 -1.0
344 267 1.0
727 267 1.0
291 268 -1.0
313 268 -1.0
345 268 1.0
728 268 1.0
291 269 -1.0
314 269 -1.0
346 269 1.0
729 269 1.0
292 270 1.0
359 270 -1.0
591 270 1.0
292 271 -1.0
315 271 -1.0
347 271 1.0
730 271 1.0
292 272 -1.0
316 272 -1.0
348 272 1.0
731 272 1.0
292 273 -1.0
317 273 -1.0
349 273 1.0
732 273 1.0
292 274 -1.0
318 274 -1.0
350 274 1.0
733 274 1.0
293 275 1.0
359 275 -1.0
592 275 1.0
293 276 -1.0
319 276 -1.0
351 276 1.0
734 276 1.0
293 277 -1.0
320 277 -1.0
352 277 1.0
735 277 1.0
293 278 -1.0
321 278 -1.0
353 278 1.0
736 278 1.0
293 279 -1.0
322 279 -1.0
354 279 1.0
737 279 1.0
294 280 1.0
359 280 -1.0
593 280 1.0
294 281 -1.0
323 281 -1.0
355 281 1.0
738 281 1.0
294 282 -1.0
324 282 -1.0
356 282 1.0
739 282 1.0
294 283 -1.0
325 283 -1.0
357 283 1.0
740 283 1.0
294 284 -1.0
326 284 -1.0
358 284 1.0
741 284 1.0
368 285 -1.0
372 285 1.0
806 285 1.0
807 285 -1.0
372 286 -1.0
385 286 1.0
808 286 1.0
372 287 -1.0
398 287 1.0
809 287 1.0
373 288 -1.0
386 288 1.0
810 288 1.0
373 289 -1.0
399 289 1.0
811 289 1.0
373 290 1.0
374 290 1.0
812 290 1.0
374 291 -1.0
375 291 1.0
814 291 1.0
375 292 -1.0
407 292 1.0
815 292 1.0
375 293 -1.0
420 293 1.0
816 293 1.0
375 294 -1.0
431 294 1.0
817 294 1.0
376 295 1.0
408 295 1.0
820 295 1.0
376 296 -1.0
447 296 1.0
823 296 1.0
376 297 -1.0
460 297 1.0
824 297 1.0
377 298 1.0
433 298 1.0
822 298 1.0
377 299 -1.0
482 299 1.0
825 299 1.0
377 300 -1.0
491 300 1.0
826 300 1.0
380 301 -1.0
382 301 -1.0
378 302 1.0
381 302 1.0
385 302 -1.0
387 302 -1.0
833 302 1.0
382 303 -1.0
386 303 -1.0
389 303 -1.0
837 303 1.0
383 304 1.0
385 304 -1.0
388 304 -1.0
834 304 1.0
384 305 1.0
386 305 -1.0
390 305 -1.0
838 305 1.0
393 306 -1.0
395 306 -1.2
391 307 1.0
394 307 1.0
398 307 -1.0
400 307 -1.0
835 307 1.0
395 308 -1.0
399 308 -1.0
402 308 -1.0
839 308 1.0
396 309 1.0
398 309 -1.0
401 309 -1.0
836 309 1.0
397 310 1.0
399 310 -1.0
403 310 -1.0
840 310 1.0
404 311 -0.75
407 311 -1.0
409 311 -1.0
841 311 1.0
404 312 1.0
408 312 -1.0
411 312 -1.0
849 312 1.0
405 313 1.0
407 313 -1.0
410 313 -1.0
842 313 1.0
406 314 1.0
408 314 -1.0
412 314 -1.0
850 314 1.0
415 315 -1.0
417 315 -1.5
413 316 1.0
416 316 1.0
420 316 -1.0
422 316 -1.0
843 316 1.0
417 317 -1.0
421 317 -1.0
424 317 -1.0
851 317 1.0
418 318 1.0
420 318 -1.0
423 318 -1.0
844 318 1.0
419 319 1.0
421 319 -1.0
425 319 -1.0
853 319 1.0
421 320 1.0
473 320 1.0
821 320 1.0
426 321 -1.0
431 321 -1.0
434 321 -1.0
845 321 1.0
426 322 1.0
427 322 1.0
433 322 -1.0
438 322 -1.0
855 322 1.0
427 323 -0.5
432 323 -1.0
436 323 -1.0
847 323 1.0
428 324 1.0
431 324 -1.0
435 324 -1.0
846 324 1.0
429 325 1.0
432 325 -1.0
437 325 -1.0
848 325 1.0
430 326 1.0
433 326 -1.0
439 326 -1.0
856 326 1.0
442 327 -1.0
444 327 -1.25
440 328 1.0
443 328 1.0
447 328 -1.0
449 328 -1.0
857 328 1.0
444 329 -1.0
448 329 -1.0
451 329 -1.0
865 329 1.0
445 330 1.0
447 330 -1.0
450 330 -1.0
858 330 1.0
446 331 1.0
448 331 -1.0
452 331 -1.0
866 331 1.0
455 332 -1.0
457 332 -0.9
453 333 1.0
456 333 1.0
460 333 -1.0
462 333 -1.0
859 333 1.0
457 334 -1.0
461 334 -1.0
464 334 -1.0
867 334 1.0
458 335 1.0
460 335 -1.0
463 335 -1.0
860 335 1.0
459 336 1.0
461 336 -1.0
465 336 -1.0
868 336 1.0
468 337 -1.0
470 337 -1.0
466 338 1.0
469 338 1.0
473 338 -1.0
475 338 -1.0
852 338 1.0
470 339 -1.0
474 339 -1.0
477 339 -1.0
869 339 1.0
471 340 1.0
473 340 -1.0
476 340 -1.0
854 340 1.0
472 341 1.0
474 341 -1.0
478 341 -1.0
870 341 1.0
479 342 -0.9
482 342 -1.0
484 342 -1.0
861 342 1.0
479 343 1.0
483 343 -1.0
486 343 -1.0
871 343 1.0
480 344 1.0
482 344 -1.0
485 344 -1.0
862 344 1.0
481 345 1.0
483 345 -1.0
487 345 -1.0
872 345 1.0
488 346 -0.6
491 346 -1.0
493 346 -1.0
863 346 1.0
488 347 1.0
492 347 -1.0
495 347 -1.0
873 347 1.0
489 348 1.0
491 348 -1.0
494 348 -1.0
864 348 1.0
490 349 1.0
492 349 -1.0
496 349 -1.0
874 349 1.0

BCOORD
86
36 -0.4
37 -0.3
38 -0.2
39 -0.5
40 -0.2
41 -0.3
42 35.0
43 36.0
44 25.0
45 24.0
46 30.0
359 4000.0
360 -1.0
361 -1.0
362 -1.0
363 -1.0
364 -1.0
365 -1.0
366 -1.0
367 -1.0
388 10.0
390 2.39789527279837
401 10.0
403 2.87747432735804
410 2.87747432735804
412 2.15810574551853
423 2.87747432735804
425 2.03277599268042
435 2.87747432735804
437 7.0
439 3.5
450 2.15810574551853
452 1.43746550029693
463 2.15810574551853
465 1.03497516021379
476 2.03277599268042
478 1.10947836929589
485 3.5
487 3.15
494 3.5
496 2.1
497 -1.0
743 1.0
745 1.0
747 1.0
749 1.0
751 1.0
753 1.0
755 1.0
757 1.0
759 1.0
761 1.0
763 1.0
765 1.0
767 1.0
769 1.0
771 1.0
773 1.0
775 1.0
777 1.0
779 1.0
781 1.0
783 1.0
785 1.0
787 1.0
789 1.0
791 1.0
793 1.0
795 1.0
797 1.0
799 1.0
801 1.0
803 1.0
805 1.0
807 10.0
819 7.0
876 1.0
878 1.0
880 1.0
882 1.0
884 1.0
886 1.0
888 1.0
890 1.0
892 1.0
894 1.0
